c Generated map
c Size: 8 * 8, weights in range: 1 to 10, walls: True, with ratio 0.1
c dim 2 of 10
c
p sp 64 91
c graph contains 64 nodes and 91 arcs
c
a 1 9 6
a 9 1 6
a 1 2 6
a 2 1 6
a 2 10 7
a 10 2 7
a 2 3 1
a 3 2 1
a 3 4 10
a 4 3 10
a 4 12 2
a 12 4 2
a 4 5 1
a 5 4 1
a 5 6 5
a 6 5 5
a 6 14 8
a 14 6 8
a 6 7 6
a 7 6 6
a 7 15 7
a 15 7 7
a 7 8 6
a 8 7 6
a 8 16 5
a 16 8 5
a 9 17 8
a 17 9 8
a 9 10 3
a 10 9 3
a 10 18 1
a 18 10 1
a 12 20 2
a 20 12 2
a 14 22 9
a 22 14 9
a 14 15 3
a 15 14 3
a 15 23 2
a 23 15 2
a 15 16 1
a 16 15 1
a 17 25 1
a 25 17 1
a 17 18 3
a 18 17 3
a 18 26 1
a 26 18 1
a 18 19 6
a 19 18 6
a 19 27 8
a 27 19 8
a 19 20 9
a 20 19 9
a 20 28 9
a 28 20 9
a 20 21 8
a 21 20 8
a 21 29 1
a 29 21 1
a 21 22 9
a 22 21 9
a 22 23 7
a 23 22 7
a 23 31 1
a 31 23 1
a 25 33 10
a 33 25 10
a 25 26 7
a 26 25 7
a 26 34 8
a 34 26 8
a 26 27 2
a 27 26 2
a 27 35 9
a 35 27 9
a 27 28 3
a 28 27 3
a 28 36 6
a 36 28 6
a 28 29 3
a 29 28 3
a 29 37 10
a 37 29 10
a 31 39 8
a 39 31 8
a 31 32 6
a 32 31 6
a 32 40 6
a 40 32 6
a 33 41 5
a 41 33 5
a 33 34 10
a 34 33 10
a 34 42 6
a 42 34 6
a 34 35 10
a 35 34 10
a 35 43 10
a 43 35 10
a 35 36 2
a 36 35 2
a 36 44 7
a 44 36 7
a 36 37 2
a 37 36 2
a 37 45 4
a 45 37 4
a 37 38 10
a 38 37 10
a 38 46 9
a 46 38 9
a 38 39 2
a 39 38 2
a 39 47 1
a 47 39 1
a 39 40 9
a 40 39 9
a 40 48 7
a 48 40 7
a 41 49 8
a 49 41 8
a 41 42 4
a 42 41 4
a 42 50 1
a 50 42 1
a 42 43 3
a 43 42 3
a 43 51 5
a 51 43 5
a 43 44 9
a 44 43 9
a 44 52 3
a 52 44 3
a 44 45 4
a 45 44 4
a 45 53 7
a 53 45 7
a 45 46 4
a 46 45 4
a 46 54 10
a 54 46 10
a 46 47 1
a 47 46 1
a 47 55 10
a 55 47 10
a 47 48 4
a 48 47 4
a 48 56 4
a 56 48 4
a 49 57 10
a 57 49 10
a 49 50 5
a 50 49 5
a 50 51 3
a 51 50 3
a 51 59 1
a 59 51 1
a 51 52 6
a 52 51 6
a 52 53 8
a 53 52 8
a 53 61 1
a 61 53 1
a 53 54 5
a 54 53 5
a 54 62 10
a 62 54 10
a 54 55 1
a 55 54 1
a 55 63 10
a 63 55 10
a 55 56 5
a 56 55 5
a 56 64 7
a 64 56 7
a 61 62 9
a 62 61 9
a 62 63 2
a 63 62 2
a 63 64 3
a 64 63 3
